mixintcount/benchmarks/random_v2l/4_4_1584.smt2
(set-logic QF_LIA)
(set-info :ran/ran2.smt2)
(set-info :smt-lib-version 2.0)
(declare-fun x1 () Int)
(declare-fun x2 () Int)
(declare-fun x3 () Int)
(declare-fun x4 () Int)
(assert (<= (+ (* (- 2) x1) (* 6 x2) (* 5 x3) (* 4 x4) ) (- 1291)))
(assert (<= (+ (* 7 x1) (* (- 5) x2) (* (- 8) x3) (* 9 x4) ) (- 1523)))
(assert (<= (+ (* 9 x1) (* 5 x2) (* 6 x3) (* (- 8) x4) ) 435))
(assert (<= (+ (* 7 x1) (* (- 6) x2) (* (- 3) x3) (* (- 4) x4) ) 83))
(assert (<= (+ (* 4 x1) (* (- 2) x2) (* 8 x3) (* 6 x4) ) (- 593)))
(assert (<= (+ (* (- 2) x1) (* 4 x2) (* 6 x3) (* (- 7) x4) ) 1056))
(assert (<= (+ (* 1 x1) (* 1 x2) (* (- 4) x3) (* (- 5) x4) ) 889))
(assert (<= (+ (* 6 x1) (* 10 x2) (* (- 2) x3) (* 7 x4) ) (- 873)))
(assert (<= (+ (* 1 x1) (* 0 x2) (* 0 x3) (* 0 x4) ) 1584))
(assert (<= (+ (* (- 1) x1) (* 0 x2) (* 0 x3) (* 0 x4) ) 1584))
(assert (<= (+ (* 0 x1) (* 1 x2) (* 0 x3) (* 0 x4) ) 1584))
(assert (<= (+ (* 0 x1) (* (- 1) x2) (* 0 x3) (* 0 x4) ) 1584))
(assert (<= (+ (* 0 x1) (* 0 x2) (* 1 x3) (* 0 x4) ) 1584))
(assert (<= (+ (* 0 x1) (* 0 x2) (* (- 1) x3) (* 0 x4) ) 1584))
(assert (<= (+ (* 0 x1) (* 0 x2) (* 0 x3) (* 1 x4) ) 1584))
(assert (<= (+ (* 0 x1) (* 0 x2) (* 0 x3) (* (- 1) x4) ) 1584))
