mixintcount/benchmarks/random_v2l/4_4_1584.in
16 6
#	x1	x2	x3	x4;		0 = Real; 1 = Integer
	1	1	1	1
1	-2	6	5	4	-1291
1	7	-5	-8	9	-1523
1	9	5	6	-8	435
1	7	-6	-3	-4	83
1	4	-2	8	6	-593
1	-2	4	6	-7	1056
1	1	1	-4	-5	889
1	6	10	-2	7	-873
1	1	0	0	0	1584
1	-1	0	0	0	1584
1	0	1	0	0	1584
1	0	-1	0	0	1584
1	0	0	1	0	1584
1	0	0	-1	0	1584
1	0	0	0	1	1584
1	0	0	0	-1	1584
